25 50
1 2 2
1 6 2
2 3 1
2 7 3
3 4 4
3 8 1
4 5 1
4 9 1
5 10 2
6 7 5
6 11 2
7 8 1
7 12 1
8 9 4
8 13 1
9 10 3
9 14 3
10 15 2
11 12 3
11 16 5
12 13 1
12 17 2
13 14 2
13 18 3
14 15 3
14 19 3
15 20 1
16 17 2
16 21 5
17 18 5
17 22 4
18 19 5
18 23 4
19 20 4
19 24 5
20 25 4
21 22 5
22 23 1
23 24 3
24 25 2
1 21 5
2 22 4
3 23 3
4 24 5
5 25 4
1 5 5
6 10 4
11 15 2
16 20 2
21 25 5
